Route #1: 42 45 5 54 10
Route #2: 2 1 36 22 48 30 49
Route #3: 50 43 56 12 9 51 32
Route #4: 28 44 53 31 24 58
Route #5: 55 15 26 27 17 37 57 29
Route #6: 23 34 6 4 21 11 40 46
Route #7: 33 38 59 52 14 47
Route #8: 35 39 8 13 7 19 18
Route #9: 25 3 20 16 41
Cost 1418.9880723446556